DIMENSION: 76
56
41
64
42
43
1
63
16
33
73
62
22
61
28
74
21
69
36
71
60
70
20
37
57
15
5
47
48
29
45
27
13
54
52
34
4
68
30
2
6
51
40
12
17
75
76
26
67
46
8
19
7
35
53
14
59
11
66
65
38
58
72
39
9
10
31
25
55
18
50
32
44
3
24
49
23
